c CNF file corresponding to a (partial) station packing problem.
p cnf 4400 229
1 2 3 4 5 6 7 8 9 10 11 12 13 14 0
-1 -2 0
-1 -3 0
-1 -4 0
-1 -5 0
-1 -6 0
-1 -7 0
-1 -8 0
-1 -9 0
-1 -10 0
-1 -11 0
-1 -12 0
-1 -13 0
-1 -14 0
-2 -3 0
-2 -4 0
-2 -5 0
-2 -6 0
-2 -7 0
-2 -8 0
-2 -9 0
-2 -10 0
-2 -11 0
-2 -12 0
-2 -13 0
-2 -14 0
-3 -4 0
-3 -5 0
-3 -6 0
-3 -7 0
-3 -8 0
-3 -9 0
-3 -10 0
-3 -11 0
-3 -12 0
-3 -13 0
-3 -14 0
-4 -5 0
-4 -6 0
-4 -7 0
-4 -8 0
-4 -9 0
-4 -10 0
-4 -11 0
-4 -12 0
-4 -13 0
-4 -14 0
-5 -6 0
-5 -7 0
-5 -8 0
-5 -9 0
-5 -10 0
-5 -11 0
-5 -12 0
-5 -13 0
-5 -14 0
-6 -7 0
-6 -8 0
-6 -9 0
-6 -10 0
-6 -11 0
-6 -12 0
-6 -13 0
-6 -14 0
-7 -8 0
-7 -9 0
-7 -10 0
-7 -11 0
-7 -12 0
-7 -13 0
-7 -14 0
-8 -9 0
-8 -10 0
-8 -11 0
-8 -12 0
-8 -13 0
-8 -14 0
-9 -10 0
-9 -11 0
-9 -12 0
-9 -13 0
-9 -14 0
-10 -11 0
-10 -12 0
-10 -13 0
-10 -14 0
-11 -12 0
-11 -13 0
-11 -14 0
-12 -13 0
-12 -14 0
-13 -14 0
4384 4385 4386 4387 4388 4389 4390 4391 4392 4393 4394 4395 4396 4397 4398 4399 4400 0
-4384 -4385 0
-4384 -4386 0
-4384 -4387 0
-4384 -4388 0
-4384 -4389 0
-4384 -4390 0
-4384 -4391 0
-4384 -4392 0
-4384 -4393 0
-4384 -4394 0
-4384 -4395 0
-4384 -4396 0
-4384 -4397 0
-4384 -4398 0
-4384 -4399 0
-4384 -4400 0
-4385 -4386 0
-4385 -4387 0
-4385 -4388 0
-4385 -4389 0
-4385 -4390 0
-4385 -4391 0
-4385 -4392 0
-4385 -4393 0
-4385 -4394 0
-4385 -4395 0
-4385 -4396 0
-4385 -4397 0
-4385 -4398 0
-4385 -4399 0
-4385 -4400 0
-4386 -4387 0
-4386 -4388 0
-4386 -4389 0
-4386 -4390 0
-4386 -4391 0
-4386 -4392 0
-4386 -4393 0
-4386 -4394 0
-4386 -4395 0
-4386 -4396 0
-4386 -4397 0
-4386 -4398 0
-4386 -4399 0
-4386 -4400 0
-4387 -4388 0
-4387 -4389 0
-4387 -4390 0
-4387 -4391 0
-4387 -4392 0
-4387 -4393 0
-4387 -4394 0
-4387 -4395 0
-4387 -4396 0
-4387 -4397 0
-4387 -4398 0
-4387 -4399 0
-4387 -4400 0
-4388 -4389 0
-4388 -4390 0
-4388 -4391 0
-4388 -4392 0
-4388 -4393 0
-4388 -4394 0
-4388 -4395 0
-4388 -4396 0
-4388 -4397 0
-4388 -4398 0
-4388 -4399 0
-4388 -4400 0
-4389 -4390 0
-4389 -4391 0
-4389 -4392 0
-4389 -4393 0
-4389 -4394 0
-4389 -4395 0
-4389 -4396 0
-4389 -4397 0
-4389 -4398 0
-4389 -4399 0
-4389 -4400 0
-4390 -4391 0
-4390 -4392 0
-4390 -4393 0
-4390 -4394 0
-4390 -4395 0
-4390 -4396 0
-4390 -4397 0
-4390 -4398 0
-4390 -4399 0
-4390 -4400 0
-4391 -4392 0
-4391 -4393 0
-4391 -4394 0
-4391 -4395 0
-4391 -4396 0
-4391 -4397 0
-4391 -4398 0
-4391 -4399 0
-4391 -4400 0
-4392 -4393 0
-4392 -4394 0
-4392 -4395 0
-4392 -4396 0
-4392 -4397 0
-4392 -4398 0
-4392 -4399 0
-4392 -4400 0
-4393 -4394 0
-4393 -4395 0
-4393 -4396 0
-4393 -4397 0
-4393 -4398 0
-4393 -4399 0
-4393 -4400 0
-4394 -4395 0
-4394 -4396 0
-4394 -4397 0
-4394 -4398 0
-4394 -4399 0
-4394 -4400 0
-4395 -4396 0
-4395 -4397 0
-4395 -4398 0
-4395 -4399 0
-4395 -4400 0
-4396 -4397 0
-4396 -4398 0
-4396 -4399 0
-4396 -4400 0
-4397 -4398 0
-4397 -4399 0
-4397 -4400 0
-4398 -4399 0
-4398 -4400 0
-4399 -4400 0
